Maximize
score: + 41851 c0 + 27 c1 + 227 c2 + 54 c3 + 54 c4 + 61 c5 + 89 c6 + 36 c7 + 148 c8 + 110 c9 + 81 c10 + 2499 c11 + 36 c12 + 270 c13 + 81 c14 + 120 c15 + 107 c16 + 71 c17 + 952 c18 + 108 c19 + 144 c20 + 159 c21 + 154 c22 + 40 c23 + 196 c24 + 151 c25 + 65 c26 + 121 c27 + 8 c28 + 36 c29 + 300 c30 + 72 c31 + 182 c32 + 266 c33 + 692 c34 + 205 c35 + 35 c36 + 44 c37 + 255 c38 + 475 c39 + 156 c40 + 249 c41 + 32 c42 + 224 c43 + 35 c44 + 4181 c45 + 60 c46 + 54 c47 + 4174 c48 + 84 c49 + 502 c50 + 16 c51 + 1200 c52 + 117 c53 + 5568 c54 + 2688 c55 + 304 c56 + 1264 c57 + 1152 c58 + 2112 c59 + 7943 c60 + 16331 c61

Subject To
index_0: 1 s37 + 1 s53 + 1 s79 + 3 s150 - c0 >= 0
index_1: 4 s118 + 2 s123 + 2 s128 + 2 s129 + 2 s134 - c1 >= 0
index_2: 1 s123 + 2 s128 + 1 s129 + 2 s134 - c2 >= 0
index_3: 1 s123 + 2 s128 + 1 s129 + 2 s134 - c3 >= 0
index_4: 2 s53 + 6 s54 + 2 s168 - c4 >= 0
index_5: 1 s62 + 5 s64 + 5 s66 - c5 >= 0
index_6: 3 s64 + 3 s66 + 1 s91 + 1 s162 - c6 >= 0
index_7: 1 s53 + 3 s54 + 1 s58 + 3 s64 + 3 s66 + 1 s72 + 1 s79 - c7 >= 0
index_8: 1 s48 + 1 s50 + 1 s86 + 3 s102 + 2 s111 + 1 s118 + 2 s123 + 2 s128 + 1 s131 + 2 s134 + 1 s141 + 1 s158 - c8 >= 0
index_9: 1 s118 + 2 s123 + 3 s128 + 3 s134 - c9 >= 0
index_10: 2 s54 + 1 s79 + 2 s91 + 1 s102 + 2 s113 + 2 s118 + 2 s123 + 2 s128 + 3 s129 + 2 s134 + 1 s164 + 1 s168 - c10 >= 0
index_11: 2 s53 + 1 s54 + 1 s78 + 1 s79 + 1 s150 - c11 >= 0
index_12: 1 s34 + 1 s44 + 2 s53 + 1 s79 + 1 s107 + 1 s113 + 1 s148 + 1 s153 + 1 s162 + 1 s164 + 2 s166 + 1 s167 + 1 s168 - c12 >= 0
index_13: 1 s118 + 2 s123 + 3 s128 + 3 s134 - c13 >= 0
index_14: 1 s53 + 1 s113 + 1 s146 + 1 s153 + 1 s162 + 1 s164 + 2 s166 + 1 s167 + 1 s168 - c14 >= 0
index_15: 1 s53 + 1 s54 + 1 s91 + 1 s144 + 1 s146 + 1 s148 + 2 s150 + 1 s166 + 1 s167 + 1 s168 - c15 >= 0
index_16: 1 s33 + 1 s57 + 1 s63 + 1 s64 + 1 s66 + 3 s79 - c16 >= 0
index_17: 2 s123 + 2 s128 + 2 s129 + 2 s134 - c17 >= 0
index_18: 1 s28 + 1 s63 + 1 s64 + 1 s78 + 5 s79 - c18 >= 0
index_19: 1 s79 + 1 s128 + 1 s129 + 1 s134 + 1 s137 + 1 s144 + 1 s146 + 1 s164 - c19 >= 0
index_20: 1 s49 + 1 s62 + 1 s71 + 1 s87 + 1 s102 + 1 s118 + 1 s123 + 1 s128 + 1 s129 + 1 s134 + 1 s142 + 1 s159 + 1 s166 - c20 >= 0
index_21: 1 s71 + 1 s87 + 1 s102 + 1 s118 + 2 s123 + 1 s128 + 2 s129 + 1 s134 + 1 s142 - c21 >= 0
index_22: 1 s71 + 1 s87 + 1 s102 + 1 s123 + 1 s142 - c22 >= 0
index_23: 1 s49 + 1 s62 + 1 s71 + 1 s77 + 1 s87 + 1 s102 + 1 s111 + 1 s118 + 1 s123 + 1 s128 + 1 s134 + 1 s142 + 2 s159 - c23 >= 0
index_24: 10 s113 - c24 >= 0
index_25: 4 s15 + 5 s16 - c25 >= 0
index_26: 2 s28 + 1 s63 + 1 s64 + 1 s78 + 5 s79 - c26 >= 0
index_27: 7 s113 - c27 >= 0
index_28: 2 s15 + 1 s17 + 3 s18 - c28 >= 0
index_29: 2 s34 + 1 s35 + 1 s41 + 2 s91 + 1 s123 + 1 s128 + 1 s129 + 1 s134 + 1 s137 + 1 s144 + 2 s146 + 1 s150 - c29 >= 0
index_30: 1 s33 + 1 s79 + 1 s82 + 1 s91 + 3 s164 + 1 s165 + 1 s166 + 2 s168 - c30 >= 0
index_31: 1 s38 + 1 s42 + 1 s49 + 1 s55 + 1 s80 + 1 s87 + 1 s96 + 1 s104 + 1 s111 + 1 s135 + 1 s142 + 1 s151 + 1 s159 - c31 >= 0
index_32: 1 s102 + 1 s103 + 1 s118 + 2 s123 + 4 s128 + 1 s129 + 3 s134 + 1 s148 - c32 >= 0
index_33: 1 s24 + 1 s49 + 1 s67 + 1 s118 + 2 s168 - c33 >= 0
index_34: 1 s49 + 1 s53 + 1 s59 + 1 s68 + 1 s74 + 1 s83 + 1 s115 + 1 s120 + 1 s125 + 1 s131 + 1 s159 - c34 >= 0
index_35: 1 s42 + 1 s45 + 1 s83 + 1 s138 + 1 s155 - c35 >= 0
index_36: 3 s27 + 1 s33 + 1 s66 + 1 s91 + 2 s164 + 1 s166 + 2 s168 - c36 >= 0
index_37: 1 s45 + 1 s53 + 1 s59 + 1 s68 + 1 s74 + 1 s79 + 1 s83 + 1 s99 + 1 s108 + 1 s115 + 1 s120 + 1 s125 + 1 s131 + 1 s138 + 1 s155 - c37 >= 0
index_38: 1 s42 + 1 s45 + 4 s54 + 1 s59 + 1 s68 + 1 s74 + 1 s79 + 1 s83 + 1 s91 + 1 s115 + 1 s120 + 1 s125 + 1 s131 + 1 s138 + 1 s148 + 1 s155 - c38 >= 0
index_39: 1 s45 + 1 s59 + 1 s68 + 1 s74 + 1 s83 + 1 s99 + 1 s115 + 1 s120 + 1 s125 + 1 s131 + 1 s138 + 1 s155 - c39 >= 0
index_40: 1 s45 + 2 s54 + 1 s59 + 1 s68 + 1 s74 + 1 s83 + 2 s99 + 1 s115 + 1 s120 + 1 s125 + 1 s131 + 1 s138 + 1 s155 - c40 >= 0
index_41: 1 s12 + 8 s17 + 14 s19 - c41 >= 0
index_42: 1 s34 + 1 s41 + 1 s91 + 1 s102 + 1 s118 + 1 s123 + 1 s128 + 1 s129 + 1 s134 + 1 s137 + 1 s144 + 2 s146 + 1 s150 - c42 >= 0
index_43: 1 s102 + 1 s118 + 1 s123 + 1 s128 + 1 s134 - c43 >= 0
index_44: 2 s25 + 1 s26 + 1 s27 + 1 s28 + 1 s30 + 1 s32 + 3 s34 + 1 s35 + 1 s36 + 2 s37 + 2 s41 + 1 s44 + 1 s51 + 4 s53 + 3 s54 + 1 s63 + 1 s64 + 1 s65 + 1 s66 + 1 s78 + 5 s79 + 3 s91 + 2 s123 + 1 s124 + 1 s128 + 1 s129 + 1 s130 + 1 s134 + 2 s146 + 1 s153 + 1 s162 + 2 s164 + 2 s166 + 1 s167 + 1 s168 - c44 >= 0
index_45: 2 s91 + 1 s123 + 1 s128 + 1 s129 + 1 s134 - c45 >= 0
index_46: 1 s53 + 1 s79 + 1 s102 + 1 s148 + 1 s150 + 1 s166 - c46 >= 0
index_47: 2 s27 + 3 s54 + 1 s64 + 1 s67 + 1 s79 + 5 s91 + 3 s102 + 1 s113 + 2 s118 + 3 s123 + 1 s124 + 2 s128 + 2 s129 + 2 s134 + 2 s146 + 1 s150 + 1 s165 + 1 s167 + 2 s168 - c47 >= 0
index_48: 1 s6 + 1 s7 + 1 s10 + 1 s12 + 1 s13 + 1 s20 + 1 s23 - c48 >= 0
index_49: 22 s103 + 2 s106 + 3 s118 - c49 >= 0
index_50: 1 s54 + 1 s57 + 3 s79 + 1 s91 - c50 >= 0
index_51: 9 s6 + 7 s7 + 2 s8 + 1 s9 + 9 s10 + 10 s12 + 14 s13 + 4 s14 + 2 s16 + 5 s20 + 1 s22 + 9 s23 + 2 s24 - c51 >= 0
index_52: 1 s31 + 1 s63 + 1 s64 + 1 s78 + 5 s79 - c52 >= 0
index_53: 2 s53 + 3 s54 + 1 s64 + 1 s72 + 1 s78 + 4 s79 + 1 s91 + 1 s103 + 2 s146 + 2 s148 + 2 s150 + 2 s162 + 3 s164 + 2 s166 + 1 s167 + 1 s168 - c53 >= 0
index_54: 1 s45 + 1 s53 + 1 s59 + 1 s68 + 1 s74 + 1 s83 + 1 s99 + 1 s108 + 1 s115 + 1 s120 + 1 s125 + 1 s131 + 1 s138 + 1 s155 - c54 >= 0
index_55: 1 s72 + 7 s93 + 1 s94 + 6 s95 + 1 s150 + 1 s162 - c55 >= 0
index_56: 2 s0 + 2 s1 + 5 s2 + 1 s3 + 1 s4 + 1 s5 + 1 s95 - c56 >= 0
index_57: 1 s71 + 2 s87 + 1 s123 + 1 s129 + 1 s142 - c57 >= 0
index_58: 1 s71 + 1 s79 + 1 s118 + 2 s123 + 1 s128 + 2 s129 + 1 s134 + 1 s142 + 1 s159 - c58 >= 0
index_59: 1 s6 + 1 s8 + 1 s9 + 1 s10 + 1 s11 + 1 s12 + 1 s13 + 1 s18 + 1 s21 + 1 s22 + 1 s23 + 1 s36 + 1 s37 + 1 s40 + 1 s41 + 1 s43 + 1 s44 + 1 s51 + 1 s52 + 1 s57 + 1 s62 + 1 s65 + 1 s73 + 1 s77 + 1 s78 + 1 s82 + 1 s88 + 1 s89 + 1 s103 + 1 s106 + 1 s113 + 1 s119 + 1 s123 + 1 s128 + 1 s129 + 1 s130 + 1 s134 + 1 s136 + 1 s137 + 1 s144 + 1 s146 + 1 s147 + 1 s148 + 1 s153 + 1 s154 + 1 s161 + 1 s167 - c59 >= 0
index_60: 1 s15 + 1 s16 + 1 s17 + 1 s25 + 1 s26 + 1 s27 + 1 s28 + 1 s29 + 1 s30 + 1 s31 + 1 s32 + 1 s33 + 1 s34 + 1 s35 + 1 s41 + 1 s42 + 1 s45 + 1 s46 + 1 s47 + 1 s49 + 1 s53 + 3 s54 + 1 s55 + 1 s58 + 1 s59 + 1 s60 + 1 s61 + 1 s63 + 1 s64 + 4 s66 + 1 s68 + 1 s69 + 1 s70 + 1 s71 + 1 s72 + 1 s74 + 1 s75 + 1 s76 + 1 s79 + 1 s80 + 1 s83 + 1 s84 + 1 s85 + 1 s86 + 1 s87 + 1 s100 + 1 s101 + 1 s102 + 1 s103 + 1 s104 + 1 s109 + 1 s110 + 1 s111 + 1 s115 + 1 s116 + 1 s117 + 1 s120 + 1 s121 + 1 s122 + 1 s123 + 1 s124 + 1 s125 + 1 s126 + 1 s127 + 1 s131 + 1 s132 + 1 s133 + 1 s135 + 1 s138 + 1 s139 + 1 s140 + 1 s141 + 1 s142 + 1 s149 + 2 s150 + 1 s151 + 1 s155 + 1 s156 + 1 s157 + 1 s158 + 1 s159 + 1 s162 + 1 s163 + 3 s164 + 1 s165 + 2 s166 - c60 >= 0
length: 8 s0 + 11 s1 + 40 s2 + 4 s3 + 1 s4 + 9 s5 + 93 s6 + 42 s7 + 44 s8 + 73 s9 + 94 s10 + 81 s11 + 94 s12 + 89 s13 + 63 s14 + 74 s15 + 115 s16 + 136 s17 + 121 s18 + 99 s19 + 88 s20 + 34 s21 + 93 s22 + 56 s23 + 57 s24 + 175 s25 + 46 s26 + 259 s27 + 110 s28 + 15 s29 + 190 s30 + 76 s31 + 99 s32 + 168 s33 + 159 s34 + 50 s35 + 55 s36 + 121 s37 + 4 s38 + 1 s39 + 15 s40 + 151 s41 + 34 s42 + 4 s43 + 34 s44 + 38 s45 + 1 s46 + 1 s47 + 10 s48 + 52 s49 + 10 s50 + 52 s51 + 14 s52 + 367 s53 + 487 s54 + 4 s55 + 4 s56 + 34 s57 + 32 s58 + 39 s59 + 1 s60 + 1 s61 + 44 s62 + 43 s63 + 316 s64 + 25 s65 + 366 s66 + 46 s67 + 39 s68 + 1 s69 + 1 s70 + 71 s71 + 236 s72 + 28 s73 + 39 s74 + 1 s75 + 1 s76 + 115 s77 + 53 s78 + 638 s79 + 4 s80 + 4 s81 + 25 s82 + 38 s83 + 1 s84 + 1 s85 + 10 s86 + 35 s87 + 7 s88 + 25 s89 + 17 s90 + 565 s91 + 12 s92 + 148 s93 + 28 s94 + 70 s95 + 4 s96 + 4 s97 + 29 s98 + 36 s99 + 1 s100 + 1 s101 + 347 s102 + 301 s103 + 4 s104 + 4 s105 + 95 s106 + 22 s107 + 36 s108 + 1 s109 + 1 s110 + 28 s111 + 4 s112 + 495 s113 + 22 s114 + 36 s115 + 1 s116 + 1 s117 + 212 s118 + 30 s119 + 36 s120 + 1 s121 + 1 s122 + 226 s123 + 35 s124 + 36 s125 + 1 s126 + 1 s127 + 249 s128 + 202 s129 + 15 s130 + 39 s131 + 1 s132 + 1 s133 + 230 s134 + 4 s135 + 4 s136 + 30 s137 + 46 s138 + 1 s139 + 1 s140 + 7 s141 + 35 s142 + 7 s143 + 30 s144 + 14 s145 + 229 s146 + 27 s147 + 177 s148 + 7 s149 + 208 s150 + 33 s151 + 4 s152 + 24 s153 + 27 s154 + 46 s155 + 1 s156 + 1 s157 + 7 s158 + 59 s159 + 7 s160 + 27 s161 + 165 s162 + 46 s163 + 479 s164 + 69 s165 + 257 s166 + 116 s167 + 259 s168 <= 6414



Binary
c0
c1
c2
c3
c4
c5
c6
c7
c8
c9
c10
c11
c12
c13
c14
c15
c16
c17
c18
c19
c20
c21
c22
c23
c24
c25
c26
c27
c28
c29
c30
c31
c32
c33
c34
c35
c36
c37
c38
c39
c40
c41
c42
c43
c44
c45
c46
c47
c48
c49
c50
c51
c52
c53
c54
c55
c56
c57
c58
c59
c60
c61
s0
s1
s2
s3
s4
s5
s6
s7
s8
s9
s10
s11
s12
s13
s14
s15
s16
s17
s18
s19
s20
s21
s22
s23
s24
s25
s26
s27
s28
s29
s30
s31
s32
s33
s34
s35
s36
s37
s38
s39
s40
s41
s42
s43
s44
s45
s46
s47
s48
s49
s50
s51
s52
s53
s54
s55
s56
s57
s58
s59
s60
s61
s62
s63
s64
s65
s66
s67
s68
s69
s70
s71
s72
s73
s74
s75
s76
s77
s78
s79
s80
s81
s82
s83
s84
s85
s86
s87
s88
s89
s90
s91
s92
s93
s94
s95
s96
s97
s98
s99
s100
s101
s102
s103
s104
s105
s106
s107
s108
s109
s110
s111
s112
s113
s114
s115
s116
s117
s118
s119
s120
s121
s122
s123
s124
s125
s126
s127
s128
s129
s130
s131
s132
s133
s134
s135
s136
s137
s138
s139
s140
s141
s142
s143
s144
s145
s146
s147
s148
s149
s150
s151
s152
s153
s154
s155
s156
s157
s158
s159
s160
s161
s162
s163
s164
s165
s166
s167
s168
End